EVRP-TW-SPD dataset generation/evrptwspd_instances/small_instances/Cplex15er/c103C15.txt
StringID	Type	x	y	Delivery	Pickup	ReadyTime	DueDate	ServiceTime
D0	d	40.0	50.0	0.0	0.0	0.0	1236.0	0.0
S0	f	40.0	50.0	0.0	0.0	0.0	1236.0	0.0
S3	f	57.0	82.0	0.0	0.0	0.0	1236.0	0.0
S7	f	21.0	83.0	0.0	0.0	0.0	1236.0	0.0
S13	f	22.0	34.0	0.0	0.0	0.0	1236.0	0.0
S15	f	39.0	26.0	0.0	0.0	0.0	1236.0	0.0
C61	c	50.0	30.0	6.0	4.0	980.0	1064.0	90.0
C30	c	20.0	55.0	3.6363636363636367	6.363636363636363	0.0	1125.0	90.0
C98	c	58.0	75.0	15.466666666666667	4.533333333333333	0.0	1115.0	90.0
C59	c	38.0	15.0	3.947368421052632	6.052631578947368	66.0	124.0	90.0
C35	c	5.0	35.0	1.4285714285714284	8.571428571428571	655.0	725.0	90.0
C13	c	22.0	75.0	8.8	21.2	1042.0	1106.0	90.0
C10	c	35.0	66.0	5.303030303030303	4.696969696969697	779.0	845.0	90.0
C44	c	32.0	30.0	9.375	0.625	0.0	1124.0	90.0
C50	c	26.0	32.0	8.125	1.875	0.0	1123.0	90.0
C95	c	62.0	80.0	23.25	6.75	0.0	1108.0	90.0
C18	c	15.0	75.0	4.0	16.0	0.0	1110.0	90.0
C33	c	8.0	40.0	8.0	32.0	355.0	437.0	90.0
C85	c	68.0	60.0	26.470588235294116	3.529411764705884	0.0	1116.0	90.0
C19	c	15.0	80.0	1.875	8.125	455.0	513.0	90.0
C40	c	35.0	30.0	8.571428571428571	1.4285714285714288	143.0	199.0	90.0

Q Vehicle fuel tank capacity /77.75/
C Vehicle load capacity /200.0/
r fuel consumption rate /1.0/
g inverse refueling rate /3.47/
v average Velocity /1.0/
